DIMACS_lns/graph-1000-610.col
p edge 1000 1851
e 3 875
e 3 891
e 3 519
e 3 69
e 3 845
e 3 677
e 3 398
e 4 973
e 4 748
e 4 536
e 4 129
e 4 34
e 6 643
e 6 129
e 6 925
e 6 799
e 6 586
e 7 330
e 7 596
e 7 664
e 7 463
e 7 523
e 8 276
e 8 445
e 8 323
e 9 921
e 9 25
e 9 487
e 9 176
e 9 310
e 11 132
e 11 288
e 11 758
e 11 108
e 11 66
e 11 168
e 12 412
e 12 722
e 12 176
e 12 774
e 12 295
e 12 410
e 12 809
e 12 696
e 13 580
e 13 362
e 13 309
e 13 165
e 14 236
e 14 255
e 14 442
e 14 390
e 14 934
e 14 337
e 14 657
e 16 324
e 16 670
e 16 367
e 18 486
e 18 925
e 18 147
e 18 453
e 19 952
e 19 446
e 19 969
e 19 134
e 19 377
e 21 281
e 21 739
e 21 198
e 23 317
e 23 906
e 23 822
e 23 659
e 24 373
e 24 323
e 24 250
e 24 130
e 24 40
e 25 68
e 25 554
e 25 703
e 25 74
e 26 963
e 26 437
e 26 970
e 26 79
e 28 310
e 28 414
e 28 231
e 28 492
e 28 985
e 28 34
e 28 490
e 28 315
e 29 715
e 29 536
e 29 584
e 29 472
e 30 365
e 30 521
e 30 576
e 33 593
e 33 761
e 33 177
e 33 118
e 33 169
e 33 680
e 34 725
e 34 789
e 34 703
e 34 279
e 34 105
e 34 127
e 35 447
e 35 752
e 35 370
e 35 478
e 36 855
e 36 500
e 36 606
e 36 383
e 37 511
e 37 818
e 37 921
e 38 225
e 38 60
e 38 507
e 38 235
e 38 590
e 39 62
e 39 978
e 39 958
e 39 391
e 40 770
e 40 43
e 40 645
e 40 680
e 41 903
e 41 862
e 41 794
e 41 277
e 42 86
e 42 977
e 42 899
e 43 688
e 43 733
e 43 337
e 43 572
e 44 480
e 44 626
e 44 211
e 45 55
e 45 570
e 45 490
e 47 859
e 47 525
e 47 590
e 47 720
e 48 581
e 48 272
e 48 933
e 49 354
e 49 588
e 49 77
e 49 389
e 49 479
e 49 547
e 49 955
e 49 876
e 50 129
e 50 262
e 50 622
e 50 449
e 50 757
e 50 126
e 51 681
e 51 482
e 51 811
e 51 474
e 51 315
e 51 68
e 53 927
e 53 311
e 53 575
e 53 515
e 53 880
e 53 955
e 55 687
e 55 721
e 55 882
e 55 907
e 55 716
e 55 681
e 55 284
e 56 970
e 56 790
e 56 398
e 57 614
e 57 274
e 57 554
e 57 259
e 58 218
e 58 865
e 58 859
e 59 567
e 59 858
e 59 764
e 59 595
e 60 582
e 60 941
e 60 775
e 61 996
e 61 277
e 61 127
e 61 583
e 62 996
e 62 937
e 62 433
e 62 174
e 62 698
e 63 409
e 63 765
e 63 729
e 63 688
e 63 172
e 63 854
e 63 107
e 64 598
e 64 883
e 64 735
e 65 137
e 65 543
e 65 875
e 65 447
e 65 534
e 65 634
e 66 561
e 66 770
e 66 683
e 66 310
e 66 573
e 68 868
e 69 726
e 69 730
e 70 295
e 70 127
e 70 671
e 70 687
e 70 979
e 71 192
e 71 563
e 71 540
e 71 779
e 71 101
e 72 864
e 72 744
e 72 304
e 73 682
e 73 439
e 73 157
e 73 304
e 73 325
e 74 762
e 74 1000
e 74 116
e 75 436
e 75 936
e 75 580
e 76 642
e 76 801
e 76 435
e 76 871
e 76 992
e 76 354
e 76 80
e 76 640
e 77 98
e 77 467
e 77 613
e 77 906
e 78 266
e 78 813
e 78 88
e 78 185
e 79 177
e 79 207
e 79 697
e 79 807
e 80 473
e 80 215
e 80 918
e 80 190
e 81 915
e 81 492
e 81 897
e 82 647
e 82 869
e 82 502
e 82 344
e 82 324
e 82 630
e 83 830
e 83 214
e 83 896
e 83 330
e 83 816
e 84 789
e 84 359
e 84 412
e 84 152
e 84 699
e 84 434
e 84 963
e 85 802
e 85 389
e 85 870
e 85 294
e 85 157
e 85 242
e 86 525
e 86 342
e 86 612
e 87 812
e 87 131
e 87 928
e 87 648
e 88 510
e 88 864
e 88 980
e 88 487
e 88 988
e 88 573
e 88 129
e 88 134
e 88 157
e 89 303
e 89 942
e 89 621
e 89 824
e 89 315
e 90 726
e 90 163
e 90 138
e 92 147
e 92 610
e 92 636
e 92 172
e 92 503
e 92 427
e 93 219
e 93 165
e 93 198
e 93 471
e 94 799
e 94 655
e 94 651
e 94 751
e 94 919
e 97 201
e 97 255
e 97 521
e 97 472
e 97 839
e 98 630
e 98 758
e 98 842
e 100 248
e 100 485
e 100 675
e 101 426
e 101 611
e 101 784
e 101 954
e 102 376
e 102 571
e 102 501
e 102 683
e 102 790
e 103 571
e 103 208
e 103 809
e 104 738
e 104 1000
e 104 274
e 105 756
e 105 107
e 105 241
e 105 771
e 105 505
e 106 561
e 106 583
e 106 225
e 106 656
e 107 942
e 107 599
e 108 175
e 108 174
e 108 807
e 109 643
e 109 243
e 109 672
e 109 539
e 110 640
e 110 822
e 110 680
e 110 983
e 111 282
e 111 449
e 111 590
e 111 458
e 112 319
e 112 439
e 112 450
e 112 693
e 112 729
e 112 284
e 112 116
e 112 575
e 113 305
e 113 331
e 113 531
e 113 242
e 114 435
e 114 546
e 114 362
e 114 544
e 114 615
e 114 957
e 115 883
e 115 854
e 115 720
e 115 654
e 116 986
e 116 343
e 116 238
e 116 662
e 116 461
e 117 329
e 117 219
e 117 601
e 118 166
e 118 862
e 118 375
e 120 125
e 120 727
e 120 385
e 121 779
e 121 655
e 121 388
e 122 718
e 122 601
e 122 221
e 122 352
e 123 958
e 123 610
e 123 132
e 125 581
e 125 584
e 125 730
e 125 174
e 125 367
e 125 572
e 125 352
e 125 661
e 126 847
e 126 696
e 126 541
e 126 281
e 126 698
e 126 530
e 127 396
e 127 820
e 127 479
e 127 377
e 127 942
e 127 415
e 128 946
e 128 788
e 128 457
e 128 197
e 129 155
e 129 485
e 129 980
e 130 842
e 130 514
e 130 652
e 131 584
e 131 973
e 131 341
e 132 740
e 132 882
e 133 870
e 133 405
e 133 903
e 133 275
e 134 783
e 134 631
e 134 935
e 134 980
e 135 588
e 135 753
e 135 613
e 135 284
e 136 191
e 136 424
e 136 508
e 136 924
e 136 939
e 136 735
e 136 557
e 137 981
e 137 363
e 137 828
e 137 757
e 138 864
e 138 823
e 138 798
e 138 642
e 139 732
e 139 681
e 139 283
e 139 514
e 140 171
e 140 514
e 140 457
e 140 489
e 140 871
e 142 934
e 142 756
e 142 614
e 142 709
e 142 598
e 142 527
e 143 922
e 143 927
e 143 424
e 144 528
e 144 374
e 144 737
e 144 376
e 144 551
e 144 946
e 146 345
e 146 508
e 146 905
e 147 160
e 148 155
e 148 571
e 148 494
e 148 293
e 148 502
e 149 525
e 149 554
e 149 330
e 149 621
e 149 295
e 151 335
e 151 364
e 151 334
e 151 900
e 152 906
e 152 888
e 153 735
e 153 221
e 153 699
e 154 486
e 154 388
e 154 261
e 155 756
e 155 419
e 155 349
e 155 802
e 156 833
e 156 961
e 156 924
e 156 798
e 157 570
e 157 802
e 157 185
e 158 563
e 158 530
e 158 328
e 158 252
e 159 302
e 159 673
e 159 945
e 159 916
e 159 778
e 159 662
e 159 679
e 159 914
e 159 260
e 159 949
e 160 976
e 160 900
e 161 639
e 161 601
e 161 477
e 163 918
e 163 933
e 163 775
e 163 557
e 163 580
e 163 562
e 163 188
e 163 169
e 163 784
e 163 324
e 165 413
e 165 913
e 165 610
e 166 255
e 166 170
e 166 438
e 166 924
e 166 720
e 168 813
e 168 707
e 168 402
e 168 178
e 168 492
e 169 615
e 169 455
e 169 736
e 169 279
e 169 911
e 169 884
e 169 748
e 170 880
e 170 740
e 171 235
e 171 963
e 171 614
e 171 928
e 171 653
e 172 802
e 175 710
e 175 659
e 175 620
e 175 633
e 175 970
e 176 333
e 176 927
e 176 331
e 177 671
e 177 638
e 178 503
e 178 779
e 178 610
e 178 278
e 178 841
e 179 430
e 179 945
e 179 276
e 179 702
e 179 198
e 180 429
e 180 739
e 180 632
e 181 368
e 181 281
e 181 215
e 181 748
e 181 259
e 181 696
e 182 218
e 182 957
e 182 964
e 185 440
e 185 271
e 185 485
e 185 708
e 185 430
e 186 740
e 186 360
e 186 657
e 186 216
e 186 896
e 188 869
e 188 629
e 188 856
e 188 861
e 190 640
e 190 317
e 190 929
e 190 909
e 191 447
e 191 490
e 191 813
e 191 879
e 192 671
e 192 977
e 192 705
e 192 472
e 192 391
e 193 576
e 193 571
e 193 563
e 193 315
e 193 486
e 197 680
e 197 405
e 198 544
e 199 546
e 199 226
e 199 523
e 200 818
e 200 327
e 200 530
e 201 388
e 201 328
e 201 927
e 201 781
e 203 582
e 203 242
e 203 503
e 203 286
e 203 284
e 203 676
e 204 668
e 204 896
e 204 970
e 204 382
e 207 585
e 207 698
e 207 985
e 208 484
e 208 489
e 209 824
e 209 742
e 209 769
e 210 721
e 210 558
e 210 812
e 211 390
e 211 946
e 212 831
e 212 612
e 212 576
e 212 877
e 212 709
e 213 362
e 213 658
e 213 513
e 214 327
e 214 775
e 214 430
e 214 547
e 214 813
e 215 365
e 216 218
e 216 810
e 216 289
e 217 695
e 217 545
e 217 549
e 218 526
e 218 853
e 219 617
e 219 425
e 219 694
e 221 543
e 221 742
e 222 410
e 222 648
e 222 852
e 223 919
e 223 852
e 223 813
e 223 819
e 223 856
e 223 243
e 224 761
e 224 338
e 224 289
e 224 757
e 224 284
e 225 595
e 225 594
e 225 415
e 225 676
e 226 429
e 226 720
e 226 352
e 227 703
e 227 594
e 227 282
e 229 620
e 229 295
e 229 681
e 229 718
e 229 649
e 231 423
e 231 675
e 232 854
e 232 878
e 232 732
e 232 903
e 233 236
e 233 375
e 233 585
e 235 783
e 235 508
e 236 937
e 236 744
e 236 679
e 238 487
e 238 516
e 238 780
e 238 828
e 239 336
e 239 539
e 239 573
e 240 824
e 240 588
e 240 543
e 240 525
e 240 343
e 240 882
e 241 656
e 241 695
e 242 950
e 243 386
e 243 790
e 243 710
e 243 444
e 245 764
e 245 918
e 245 351
e 245 900
e 246 708
e 246 447
e 246 363
e 247 970
e 247 873
e 247 327
e 248 901
e 248 749
e 248 442
e 250 668
e 250 895
e 250 338
e 251 326
e 251 716
e 251 532
e 251 778
e 251 420
e 251 842
e 251 573
e 252 683
e 252 344
e 253 733
e 253 489
e 253 457
e 254 849
e 254 794
e 254 937
e 255 818
e 255 895
e 255 874
e 255 958
e 255 544
e 255 375
e 255 389
e 259 678
e 259 809
e 260 951
e 260 976
e 260 980
e 261 677
e 261 727
e 261 733
e 261 953
e 261 524
e 261 828
e 262 831
e 262 656
e 262 891
e 262 458
e 262 277
e 262 419
e 264 916
e 264 873
e 264 354
e 266 508
e 266 752
e 268 322
e 268 532
e 268 594
e 269 499
e 269 525
e 269 670
e 269 493
e 271 446
e 271 586
e 271 603
e 272 699
e 272 528
e 274 943
e 275 407
e 275 352
e 276 935
e 277 799
e 278 383
e 278 941
e 279 483
e 279 516
e 279 869
e 280 310
e 280 661
e 280 606
e 280 862
e 281 315
e 282 657
e 282 999
e 283 298
e 283 874
e 283 527
e 283 603
e 283 570
e 284 586
e 284 610
e 284 946
e 284 508
e 286 590
e 286 754
e 286 879
e 286 968
e 286 898
e 288 819
e 288 897
e 289 335
e 289 955
e 290 482
e 290 954
e 290 698
e 290 778
e 293 427
e 293 779
e 294 884
e 294 402
e 294 828
e 295 597
e 298 739
e 298 587
e 300 395
e 300 491
e 300 871
e 302 508
e 302 675
e 303 903
e 303 690
e 304 382
e 305 970
e 305 477
e 305 882
e 305 630
e 305 907
e 309 773
e 309 750
e 309 811
e 310 981
e 310 962
e 311 527
e 311 637
e 311 675
e 313 458
e 313 640
e 313 385
e 313 412
e 313 688
e 315 563
e 315 330
e 315 748
e 317 601
e 317 528
e 319 624
e 319 977
e 319 790
e 319 678
e 322 547
e 322 855
e 322 775
e 322 965
e 322 673
e 323 507
e 323 603
e 323 581
e 325 332
e 325 606
e 326 875
e 326 960
e 326 848
e 326 478
e 327 593
e 327 870
e 327 578
e 327 494
e 328 741
e 328 596
e 329 916
e 329 878
e 329 970
e 329 491
e 330 947
e 330 391
e 330 603
e 331 933
e 331 397
e 332 702
e 332 975
e 332 830
e 333 731
e 333 444
e 333 861
e 334 452
e 334 493
e 335 919
e 335 570
e 335 722
e 335 523
e 336 916
e 336 944
e 337 961
e 337 736
e 337 636
e 337 797
e 338 925
e 338 666
e 338 710
e 338 884
e 339 631
e 339 573
e 339 672
e 339 885
e 339 363
e 341 400
e 341 708
e 341 623
e 341 532
e 341 707
e 341 594
e 342 740
e 342 563
e 342 491
e 342 839
e 343 756
e 343 725
e 343 603
e 343 437
e 344 767
e 344 770
e 344 438
e 345 896
e 345 754
e 348 711
e 348 731
e 348 387
e 349 919
e 349 839
e 349 958
e 351 526
e 351 783
e 351 366
e 352 366
e 353 935
e 353 610
e 353 924
e 354 928
e 354 663
e 354 844
e 354 535
e 358 484
e 358 656
e 358 666
e 359 420
e 359 891
e 360 942
e 360 965
e 363 619
e 364 461
e 364 647
e 365 809
e 365 545
e 366 919
e 367 577
e 367 436
e 367 878
e 367 695
e 367 812
e 367 767
e 367 953
e 368 456
e 368 939
e 368 611
e 370 757
e 370 469
e 370 652
e 370 481
e 371 385
e 371 945
e 371 494
e 371 642
e 371 692
e 371 775
e 373 648
e 373 743
e 374 950
e 374 784
e 375 833
e 375 849
e 376 611
e 376 875
e 377 554
e 377 450
e 377 775
e 382 515
e 382 997
e 382 567
e 383 840
e 383 944
e 384 684
e 384 974
e 384 470
e 385 415
e 385 801
e 385 848
e 385 870
e 385 959
e 386 448
e 386 674
e 387 534
e 387 870
e 387 507
e 387 455
e 388 844
e 389 897
e 389 823
e 389 493
e 390 488
e 390 919
e 390 794
e 391 413
e 391 953
e 391 882
e 392 919
e 392 871
e 392 458
e 395 426
e 395 933
e 396 656
e 396 738
e 397 852
e 397 911
e 397 469
e 397 440
e 397 632
e 397 495
e 398 996
e 398 725
e 398 635
e 398 734
e 400 448
e 400 883
e 402 610
e 402 488
e 402 481
e 405 434
e 405 437
e 406 884
e 406 656
e 406 619
e 407 642
e 407 750
e 407 939
e 408 752
e 408 651
e 408 897
e 409 973
e 409 721
e 410 931
e 412 962
e 412 844
e 412 792
e 413 819
e 413 524
e 413 924
e 414 500
e 414 996
e 414 657
e 415 854
e 415 827
e 415 420
e 419 811
e 419 951
e 420 739
e 420 872
e 420 484
e 420 960
e 423 718
e 423 929
e 423 879
e 423 694
e 424 784
e 424 788
e 425 599
e 425 941
e 426 960
e 426 505
e 427 730
e 429 941
e 429 919
e 429 499
e 430 791
e 430 696
e 430 457
e 432 710
e 432 683
e 432 490
e 433 499
e 433 488
e 434 978
e 434 791
e 434 693
e 435 754
e 435 717
e 435 570
e 436 571
e 436 880
e 436 751
e 437 828
e 437 651
e 437 762
e 437 811
e 437 799
e 437 447
e 437 955
e 437 721
e 438 630
e 439 898
e 439 820
e 439 588
e 439 680
e 440 482
e 440 741
e 440 575
e 440 536
e 440 544
e 440 587
e 440 800
e 442 925
e 444 853
e 445 860
e 445 549
e 446 637
e 447 517
e 448 890
e 448 545
e 448 657
e 448 494
e 448 457
e 448 878
e 449 658
e 450 480
e 450 974
e 450 673
e 452 648
e 452 638
e 452 983
e 453 491
e 453 896
e 453 771
e 455 582
e 455 647
e 456 664
e 456 523
e 456 563
e 456 839
e 457 860
e 461 572
e 462 872
e 462 571
e 462 746
e 463 674
e 463 960
e 463 849
e 463 501
e 467 960
e 467 656
e 467 551
e 467 848
e 467 937
e 468 592
e 468 847
e 468 876
e 469 979
e 470 983
e 470 992
e 470 819
e 470 838
e 471 624
e 471 764
e 471 865
e 472 810
e 473 841
e 473 632
e 474 614
e 474 901
e 477 884
e 477 992
e 477 637
e 477 535
e 477 984
e 478 720
e 479 968
e 479 666
e 479 684
e 480 885
e 480 952
e 481 671
e 481 540
e 482 576
e 482 741
e 482 510
e 482 833
e 482 797
e 483 573
e 483 596
e 483 692
e 484 922
e 484 706
e 485 933
e 485 681
e 487 978
e 488 657
e 488 535
e 488 933
e 489 772
e 489 853
e 489 807
e 491 800
e 492 856
e 492 933
e 493 612
e 493 696
e 493 725
e 494 840
e 494 545
e 494 992
e 495 862
e 495 916
e 497 872
e 497 765
e 497 739
e 499 891
e 499 992
e 499 713
e 500 626
e 500 997
e 501 645
e 502 929
e 503 640
e 503 703
e 503 920
e 503 677
e 505 734
e 507 934
e 507 964
e 508 888
e 508 605
e 510 513
e 510 623
e 510 675
e 510 905
e 510 515
e 511 800
e 511 859
e 513 702
e 513 624
e 513 664
e 513 946
e 513 764
e 514 633
e 515 567
e 516 744
e 516 858
e 516 606
e 516 890
e 517 578
e 517 923
e 519 783
e 519 838
e 519 601
e 519 742
e 521 684
e 521 713
e 523 544
e 523 943
e 524 588
e 524 693
e 524 763
e 525 585
e 525 571
e 526 571
e 526 583
e 527 798
e 528 997
e 530 539
e 530 857
e 530 986
e 530 722
e 531 945
e 531 720
e 531 674
e 532 798
e 532 926
e 532 860
e 532 757
e 532 960
e 534 911
e 535 942
e 536 842
e 539 869
e 539 892
e 540 828
e 540 551
e 541 852
e 541 830
e 543 839
e 544 890
e 544 958
e 544 740
e 545 696
e 546 820
e 547 731
e 547 888
e 549 758
e 551 717
e 551 892
e 551 563
e 551 900
e 554 649
e 554 847
e 554 926
e 554 692
e 557 767
e 557 773
e 558 597
e 558 721
e 558 715
e 559 964
e 559 764
e 559 996
e 560 781
e 560 874
e 560 880
e 560 744
e 561 742
e 561 904
e 561 671
e 562 676
e 562 649
e 563 727
e 563 742
e 563 750
e 566 878
e 566 979
e 566 914
e 568 690
e 568 981
e 568 684
e 568 721
e 570 927
e 570 810
e 570 727
e 570 885
e 572 831
e 572 743
e 572 913
e 573 674
e 573 606
e 576 706
e 576 937
e 577 925
e 577 893
e 578 769
e 578 637
e 578 884
e 580 934
e 580 755
e 580 824
e 580 888
e 580 856
e 581 706
e 581 678
e 581 892
e 582 662
e 582 653
e 582 809
e 582 752
e 582 677
e 582 731
e 583 888
e 583 987
e 584 948
e 584 818
e 584 729
e 584 642
e 585 983
e 585 718
e 586 773
e 586 659
e 587 824
e 587 949
e 587 890
e 588 675
e 588 984
e 590 880
e 592 649
e 592 764
e 592 716
e 593 735
e 593 705
e 594 611
e 594 814
e 594 921
e 594 605
e 595 757
e 595 631
e 596 697
e 596 888
e 597 766
e 598 791
e 598 759
e 598 909
e 598 963
e 598 985
e 599 864
e 599 931
e 599 683
e 603 730
e 603 920
e 605 682
e 606 800
e 610 952
e 610 731
e 611 779
e 611 647
e 611 958
e 612 753
e 613 692
e 613 762
e 615 711
e 615 738
e 615 744
e 617 980
e 617 831
e 617 699
e 619 845
e 619 842
e 620 654
e 620 756
e 620 957
e 621 776
e 621 839
e 622 752
e 622 838
e 623 915
e 623 899
e 623 676
e 623 792
e 624 663
e 626 835
e 629 814
e 629 812
e 629 643
e 629 957
e 630 705
e 630 639
e 631 951
e 631 915
e 632 785
e 633 919
e 634 877
e 634 831
e 634 922
e 635 911
e 635 944
e 635 647
e 635 739
e 636 792
e 637 678
e 637 741
e 638 771
e 639 873
e 639 730
e 639 810
e 639 757
e 640 997
e 640 771
e 640 791
e 642 752
e 642 776
e 645 958
e 645 818
e 645 670
e 645 737
e 647 708
e 649 664
e 652 877
e 653 774
e 653 974
e 653 682
e 653 758
e 653 670
e 654 802
e 655 790
e 655 906
e 656 904
e 656 757
e 657 807
e 658 750
e 659 943
e 659 749
e 659 788
e 659 929
e 661 951
e 661 926
e 662 858
e 663 911
e 664 839
e 664 992
e 664 907
e 668 948
e 670 965
e 670 744
e 672 778
e 672 816
e 672 941
e 673 831
e 673 871
e 674 919
e 674 799
e 674 716
e 675 927
e 675 765
e 675 984
e 676 765
e 677 906
e 677 851
e 679 751
e 680 951
e 681 942
e 681 801
e 687 893
e 688 763
e 688 943
e 690 960
e 690 823
e 690 720
e 692 959
e 692 909
e 692 997
e 692 766
e 693 959
e 694 882
e 694 792
e 694 953
e 694 936
e 695 876
e 696 969
e 697 962
e 698 868
e 698 975
e 699 748
e 702 854
e 705 731
e 706 977
e 707 895
e 709 831
e 710 755
e 711 905
e 712 830
e 712 875
e 712 990
e 713 901
e 713 728
e 715 852
e 716 773
e 716 854
e 716 765
e 717 807
e 717 937
e 718 922
e 718 934
e 718 748
e 720 770
e 721 780
e 721 976
e 722 777
e 725 855
e 726 801
e 726 929
e 727 957
e 728 899
e 728 976
e 731 892
e 732 786
e 733 857
e 733 786
e 734 914
e 735 841
e 735 911
e 736 945
e 737 925
e 738 811
e 741 950
e 741 915
e 742 844
e 743 786
e 743 773
e 743 823
e 744 987
e 744 955
e 744 975
e 746 777
e 746 899
e 746 840
e 749 851
e 749 939
e 749 823
e 752 870
e 752 799
e 753 943
e 754 990
e 754 980
e 754 916
e 755 794
e 756 933
e 757 828
e 759 999
e 759 845
e 761 997
e 763 849
e 764 877
e 764 776
e 766 839
e 769 954
e 772 961
e 772 942
e 774 939
e 775 884
e 777 941
e 778 870
e 780 823
e 781 988
e 784 984
e 785 976
e 785 962
e 785 842
e 786 905
e 788 945
e 789 981
e 789 923
e 789 885
e 790 900
e 790 962
e 791 970
e 794 835
e 797 869
e 798 958
e 799 933
e 801 858
e 809 944
e 809 880
e 811 973
e 813 992
e 813 898
e 814 996
e 816 921
e 816 919
e 816 905
e 822 904
e 824 927
e 827 876
e 827 861
e 828 943
e 831 911
e 835 973
e 835 924
e 840 943
e 842 916
e 844 999
e 848 869
e 848 890
e 851 915
e 856 986
e 856 906
e 857 981
e 857 884
e 858 950
e 859 901
e 860 868
e 860 878
e 861 969
e 862 934
e 865 974
e 868 988
e 868 963
e 869 987
e 870 955
e 874 897
e 875 890
e 876 916
e 878 901
e 880 951
e 880 948
e 888 913
e 890 988
e 890 929
e 893 927
e 896 1000
e 897 952
e 898 985
e 905 920
e 906 1000
e 906 981
e 913 985
e 913 978
e 919 985
e 920 945
e 920 987
e 921 990
e 922 934
e 923 949
e 929 962
e 929 947
e 929 963
e 931 934
e 931 964
e 936 952
e 941 959
e 943 963
e 947 949
e 947 968
e 949 976
e 953 984
e 959 996
e 963 965
e 965 978
